33D32945 STP File, STP Format Version 1.0

SECTION Comments
Name "edge_n15_d5_s11"
Problem "Euclidean Steiner Tree Problem"
Remark "Generated with STPGenerator. 5 dimensions."
END

SECTION Graph
Nodes 15
END

SECTION Coordinates
DDDDD 0 0.9263453185 0.9263453185 0.9263453185 0.9263453185 0.9263453185
DDDDD 1 0.5264996991 0.5264996991 0.5264996991 0.5264996991 0.5264996991
DDDDD 2 0.3097808907 0.3097808907 0.3097808907 0.3097808907 0.3097808907
DDDDD 3 0.5022105041 0.5022105041 0.5022105041 0.5022105041 0.5022105041
DDDDD 4 0.7537675108 0.7537675108 0.7537675108 0.7537675108 0.7537675108
DDDDD 5 0.4059770589 0.4059770589 0.4059770589 0.4059770589 0.4059770589
DDDDD 6 0.4484664097 0.4484664097 0.4484664097 0.4484664097 0.4484664097
DDDDD 7 0.2208949445 0.2208949445 0.2208949445 0.2208949445 0.2208949445
DDDDD 8 0.8329159067 0.8329159067 0.8329159067 0.8329159067 0.8329159067
DDDDD 9 0.4041060449 0.4041060449 0.4041060449 0.4041060449 0.4041060449
DDDDD 10 0.0752406661 0.0752406661 0.0752406661 0.0752406661 0.0752406661
DDDDD 11 0.2481696737 0.2481696737 0.2481696737 0.2481696737 0.2481696737
DDDDD 12 0.3817098766 0.3817098766 0.3817098766 0.3817098766 0.3817098766
DDDDD 13 0.0352495974 0.0352495974 0.0352495974 0.0352495974 0.0352495974
DDDDD 14 0.3687719635 0.3687719635 0.3687719635 0.3687719635 0.3687719635
END
